

******************************************************************************
This program contains Ipopt, a library for large-scale nonlinear optimization.
 Ipopt is released as open source code under the Eclipse Public License (EPL).
         For more information visit https://github.com/coin-or/Ipopt
******************************************************************************

This is Ipopt version 3.14.11, running with linear solver MUMPS 5.5.1.

Number of nonzeros in equality constraint Jacobian...:        0
Number of nonzeros in inequality constraint Jacobian.:       31
Number of nonzeros in Lagrangian Hessian.............:       11

Total number of variables............................:        7
                     variables with only lower bounds:        0
                variables with lower and upper bounds:        0
                     variables with only upper bounds:        0
Total number of equality constraints.................:        0
Total number of inequality constraints...............:        9
        inequality constraints with only lower bounds:        9
   inequality constraints with lower and upper bounds:        0
        inequality constraints with only upper bounds:        0

iter    objective    inf_pr   inf_du lg(mu)  ||d||  lg(rg) alpha_du alpha_pr  ls
   0  0.0000000e+00 0.00e+00 9.47e-01  -1.0 0.00e+00    -  0.00e+00 0.00e+00   0
   1 -1.9763994e+00 2.61e+00 5.56e-02  -1.7 2.01e+00    -  1.00e+00 1.00e+00f  1
   2 -8.2145152e-01 4.81e-01 2.11e-01  -1.7 1.15e+00    -  1.00e+00 1.00e+00h  1
   3 -4.4232007e-01 1.41e-02 6.11e-02  -1.7 3.86e-01    -  1.00e+00 9.82e-01h  1
   4 -4.4467652e-01 0.00e+00 1.14e-02  -2.5 1.38e-01    -  1.00e+00 1.00e+00h  1
   5 -4.5052284e-01 6.75e-04 1.17e-03  -3.8 3.97e-02    -  1.00e+00 9.84e-01h  1
   6 -4.5000621e-01 7.14e-06 2.06e-05  -5.7 4.43e-03    -  1.00e+00 1.00e+00h  1
   7 -4.4999447e-01 0.00e+00 4.48e-07  -5.7 2.16e-03    -  1.00e+00 1.00e+00H  1
   8 -4.5000000e-01 0.00e+00 6.24e-10  -8.6 2.76e-05    -  1.00e+00 1.00e+00h  1

Number of Iterations....: 8

                                   (scaled)                 (unscaled)
Objective...............:  -4.5000000293747877e-01   -4.5000000293747877e-01
Dual infeasibility......:   6.2432478206959841e-10    6.2432478206959841e-10
Constraint violation....:   0.0000000000000000e+00    0.0000000000000000e+00
Variable bound violation:   0.0000000000000000e+00    0.0000000000000000e+00
Complementarity.........:   2.6800068985660265e-09    2.6800068985660265e-09
Overall NLP error.......:   2.6800068985660265e-09    2.6800068985660265e-09


Number of objective function evaluations             = 10
Number of objective gradient evaluations             = 9
Number of equality constraint evaluations            = 0
Number of inequality constraint evaluations          = 10
Number of equality constraint Jacobian evaluations   = 0
Number of inequality constraint Jacobian evaluations = 9
Number of Lagrangian Hessian evaluations             = 8
Total seconds in IPOPT                               = 0.006

EXIT: Optimal Solution Found.
 
Ipopt 3.14.11: Optimal Solution Found
